(set-option :produce-models true); benchmark generated from python API
(set-info :status unknown)
(declare-fun l_1_0_9 () Real)
(declare-fun l_1_0_10 () Real)
(declare-fun _a_0_ () Real)
(declare-fun l_1_0_8 () Real)
(declare-fun l_1_0_7 () Real)
(declare-fun l_1_0_5 () Real)
(declare-fun l_1_0_3 () Real)
(declare-fun l_1_0_11 () Real)
(declare-fun _a_1_ () Real)
(declare-fun l_1_0_6 () Real)
(declare-fun l_1_0_2 () Real)
(declare-fun l_1_0_1 () Real)
(declare-fun _a_2_ () Real)
(declare-fun l_1_0_13 () Real)
(declare-fun l_1_0_12 () Real)
(declare-fun _a_3_ () Real)
(declare-fun l_1_0_4 () Real)
(declare-fun l_1_0_14 () Real)
(declare-fun _a_4_ () Real)
(declare-fun _a_5_ () Real)
(declare-fun l_1_1_9 () Real)
(declare-fun l_1_1_8 () Real)
(declare-fun l_1_1_7 () Real)
(declare-fun l_1_1_6 () Real)
(declare-fun l_1_1_5 () Real)
(declare-fun l_1_1_4 () Real)
(declare-fun l_1_1_2 () Real)
(declare-fun l_1_1_17 () Real)
(declare-fun l_1_1_16 () Real)
(declare-fun l_1_1_14 () Real)
(declare-fun l_1_1_13 () Real)
(declare-fun l_1_1_3 () Real)
(declare-fun l_1_1_12 () Real)
(declare-fun l_1_1_11 () Real)
(declare-fun l_1_1_10 () Real)
(declare-fun l_1_1_1 () Real)
(declare-fun l_1_1_15 () Real)
(declare-fun l_1_1_20 () Real)
(declare-fun l_1_1_19 () Real)
(declare-fun l_1_1_18 () Real)
(declare-fun l_1_2_16 () Real)
(declare-fun l_1_2_15 () Real)
(declare-fun l_1_2_8 () Real)
(declare-fun l_1_2_3 () Real)
(declare-fun l_1_2_2 () Real)
(declare-fun l_1_2_13 () Real)
(declare-fun l_1_2_12 () Real)
(declare-fun l_1_2_9 () Real)
(declare-fun l_1_2_7 () Real)
(declare-fun l_1_2_6 () Real)
(declare-fun l_1_2_5 () Real)
(declare-fun l_1_2_4 () Real)
(declare-fun l_1_2_17 () Real)
(declare-fun l_1_2_14 () Real)
(declare-fun l_1_2_11 () Real)
(declare-fun l_1_2_10 () Real)
(declare-fun l_1_2_1 () Real)
(declare-fun l_1_2_19 () Real)
(declare-fun l_1_2_18 () Real)
(declare-fun l_1_2_20 () Real)
(assert
 (= (- _a_0_ (* (* 2.0 l_1_0_10) l_1_0_9)) 0.0))
(assert
 (let ((?x1738 (- (- (- _a_1_ (* l_1_0_10 l_1_0_10)) (* l_1_0_11 l_1_0_11)) l_1_0_3)))
 (= (- (- (- ?x1738 l_1_0_5) l_1_0_7) l_1_0_8) 0.0)))
(assert
 (let ((?x1696 (* l_1_0_9 l_1_0_9)))
 (= (- (+ (+ (+ _a_2_ l_1_0_1) l_1_0_2) l_1_0_6) ?x1696) 0.0)))
(assert
 (let ((?x1673 (* 2.0 l_1_0_6)))
 (let ((?x1671 (* 2.0 l_1_0_2)))
 (let ((?x1668 (- (- _a_3_ (* 2.0 l_1_0_1)) (* (* 2.0 l_1_0_10) l_1_0_12))))
 (= (- (- (- ?x1668 (* (* 2.0 l_1_0_11) l_1_0_13)) ?x1671) ?x1673) 0.0)))))
(assert
 (let ((?x1567 (* 4.0 l_1_0_4)))
 (let ((?x1620 (* l_1_0_14 l_1_0_14)))
 (let ((?x1618 (* l_1_0_13 l_1_0_13)))
 (let ((?x1622 (+ (- (- (- (+ _a_4_ l_1_0_1) (* l_1_0_12 l_1_0_12)) ?x1618) ?x1620) l_1_0_2)))
 (= (+ (- ?x1622 ?x1567) l_1_0_6) 0.0))))))
(assert
 (= (- _a_5_ (* (* 2.0 l_1_0_12) l_1_0_9)) 0.0))
(assert
 (= (- l_1_0_4) 0.0))
(assert
 (= (* (- 2.0) l_1_0_4) 0.0))
(assert
 (let ((?x1567 (* 4.0 l_1_0_4)))
 (= ?x1567 0.0)))
(assert
 (= (- l_1_0_4) 0.0))
(assert
 (let ((?x1567 (* 4.0 l_1_0_4)))
 (= ?x1567 0.0)))
(assert
 (>= l_1_0_1 0.0))
(assert
 (>= l_1_0_2 0.0))
(assert
 (>= l_1_0_3 0.0))
(assert
 (>= l_1_0_4 0.0))
(assert
 (>= l_1_0_5 0.0))
(assert
 (>= l_1_0_6 0.0))
(assert
 (>= l_1_0_7 0.0))
(assert
 (>= l_1_0_8 0.0))
(assert
 (>= l_1_0_9 0.0))
(assert
 (>= l_1_0_11 0.0))
(assert
 (>= l_1_0_14 0.0))
(assert
 (let ((?x1404 (* l_1_1_17 l_1_1_17)))
 (let ((?x1401 (* l_1_1_16 l_1_1_16)))
 (let ((?x610 (* _a_1_ l_1_1_12)))
 (let ((?x1395 (* _a_1_ l_1_1_11)))
 (let ((?x1070 (- (- (- (* (* 1.0 _a_1_) l_1_1_1) (* _a_1_ l_1_1_10)) ?x1395) ?x610)))
 (let ((?x1400 (- (- (+ ?x1070 (* (* 1.0 _a_1_) l_1_1_3)) l_1_1_13) l_1_1_14)))
 (let ((?x1409 (+ (- (- (- ?x1400 ?x1401) ?x1404) (* 1.0 l_1_1_2)) (* 1.0 l_1_1_4))))
 (let ((?x1271 (- (+ (- ?x1409 (* (* l_1_1_5 _a_1_) _a_1_)) (* 1.0 l_1_1_6)) l_1_1_7)))
 (= (+ (+ (- ?x1271 l_1_1_8) (* 1.0 l_1_1_9)) 3.0) 0.0))))))))))
(assert
 (let ((?x1177 (* l_1_1_15 l_1_1_15)))
 (let ((?x1173 (* _a_2_ l_1_1_12)))
 (let ((?x1171 (* _a_2_ l_1_1_11)))
 (let ((?x1174 (- (- (- (* (* 1.0 _a_2_) l_1_1_1) (* _a_2_ l_1_1_10)) ?x1171) ?x1173)))
 (let ((?x1183 (- (- (+ ?x1174 (* (* 1.0 _a_2_) l_1_1_3)) ?x1177) (* l_1_1_5 (+ (* _a_0_ _a_0_) (* (* 2.0 _a_1_) _a_2_))))))
 (= (- ?x1183 1.0) 0.0)))))))
(assert
 (let ((?x968 (* l_1_1_20 l_1_1_20)))
 (let ((?x966 (* l_1_1_19 l_1_1_19)))
 (let ((?x964 (* l_1_1_18 l_1_1_18)))
 (let ((?x960 (* _a_4_ l_1_1_12)))
 (let ((?x953 (* _a_4_ l_1_1_11)))
 (let ((?x961 (- (- (- (* (* 1.0 _a_4_) l_1_1_1) (* _a_4_ l_1_1_10)) ?x953) ?x960)))
 (let ((?x969 (- (- (- (+ ?x961 (* (* 1.0 _a_4_) l_1_1_3)) ?x964) ?x966) ?x968)))
 (let ((?x974 (- ?x969 (* l_1_1_5 (+ (* (* 2.0 _a_1_) _a_4_) (* _a_3_ _a_3_))))))
 (= (- ?x974 1.0) 0.0))))))))))
(assert
 (let ((?x862 (* _a_3_ l_1_1_12)))
 (let ((?x860 (* _a_3_ l_1_1_11)))
 (let ((?x858 (* _a_3_ l_1_1_10)))
 (let ((?x857 (+ (* (* (* (- 2.0) _a_1_) _a_3_) l_1_1_5) (* (* 1.0 _a_3_) l_1_1_1))))
 (let ((?x866 (+ (- (- (- ?x857 ?x858) ?x860) ?x862) (* (* 1.0 _a_3_) l_1_1_3))))
 (let ((?x37 (- (- ?x866 (* (* 2.0 l_1_1_16) l_1_1_18)) (* (* 2.0 l_1_1_17) l_1_1_19))))
 (= (+ ?x37 2.0) 0.0))))))))
(assert
 (let ((?x738 (* _a_0_ l_1_1_12)))
 (let ((?x736 (* _a_0_ l_1_1_11)))
 (let ((?x766 (* _a_0_ l_1_1_10)))
 (let ((?x765 (+ (* (* (* (- 2.0) _a_0_) _a_1_) l_1_1_5) (* (* 1.0 _a_0_) l_1_1_1))))
 (let ((?x740 (+ (- (- (- ?x765 ?x766) ?x736) ?x738) (* (* 1.0 _a_0_) l_1_1_3))))
 (= (- ?x740 (* (* 2.0 l_1_1_15) l_1_1_16)) 0.0)))))))
(assert
 (let ((?x574 (+ (* (* 2.0 _a_0_) _a_3_) (* (* 2.0 _a_1_) _a_5_))))
 (let ((?x32 (* _a_5_ l_1_1_12)))
 (let ((?x614 (* _a_5_ l_1_1_11)))
 (let ((?x457 (- (- (- (* (* 1.0 _a_5_) l_1_1_1) (* _a_5_ l_1_1_10)) ?x614) ?x32)))
 (let ((?x38 (- (+ ?x457 (* (* 1.0 _a_5_) l_1_1_3)) (* (* 2.0 l_1_1_15) l_1_1_18))))
 (= (- ?x38 (* l_1_1_5 ?x574)) 0.0)))))))
(assert
 (= (* (* (* (- 2.0) _a_0_) _a_2_) l_1_1_5) 0.0))
(assert
 (let ((?x393 (+ (* (* 2.0 _a_0_) _a_4_) (* (* 2.0 _a_3_) _a_5_))))
 (let ((?x390 (- l_1_1_5)))
 (= (* ?x390 ?x393) 0.0))))
(assert
 (let ((?x337 (+ (* (* 2.0 _a_0_) _a_5_) (* (* 2.0 _a_2_) _a_3_))))
 (let ((?x390 (- l_1_1_5)))
 (= (* ?x390 ?x337) 0.0))))
(assert
 (= (* (* (- l_1_1_5) _a_2_) _a_2_) 0.0))
(assert
 (let ((?x19 (* _a_5_ _a_5_)))
 (let ((?x287 (+ (* (* 2.0 _a_2_) _a_4_) ?x19)))
 (let ((?x390 (- l_1_1_5)))
 (= (* ?x390 ?x287) 0.0)))))
(assert
 (= (* (* (* (- 2.0) _a_2_) _a_5_) l_1_1_5) 0.0))
(assert
 (= (* (* (* (- 2.0) _a_3_) _a_4_) l_1_1_5) 0.0))
(assert
 (= (* (* (- l_1_1_5) _a_4_) _a_4_) 0.0))
(assert
 (= (* (* (* (- 2.0) _a_4_) _a_5_) l_1_1_5) 0.0))
(assert
 (>= l_1_1_1 0.0))
(assert
 (>= l_1_1_2 0.0))
(assert
 (>= l_1_1_3 0.0))
(assert
 (>= l_1_1_4 0.0))
(assert
 (>= l_1_1_5 0.0))
(assert
 (>= l_1_1_6 0.0))
(assert
 (>= l_1_1_7 0.0))
(assert
 (>= l_1_1_8 0.0))
(assert
 (>= l_1_1_9 0.0))
(assert
 (>= l_1_1_10 0.0))
(assert
 (>= l_1_1_11 0.0))
(assert
 (>= l_1_1_12 0.0))
(assert
 (>= l_1_1_13 0.0))
(assert
 (>= l_1_1_14 0.0))
(assert
 (>= l_1_1_15 0.0))
(assert
 (>= l_1_1_17 0.0))
(assert
 (>= l_1_1_20 0.0))
(assert
 (let ((?x166 (* (/ 2054321.0 10000000000.0) _a_5_)))
 (let ((?x164 (* (/ 5274855369.0 2500000000000000.0) _a_4_)))
 (let ((?x161 (* (/ 1036521.0 100000000.0) _a_3_)))
 (let ((?x159 (* (/ 1.0 50.0) _a_2_)))
 (let ((?x21 (* _a_0_ l_1_2_3)))
 (let ((?x151 (* _a_0_ l_1_2_2)))
 (let ((?x195 (* _a_0_ l_1_2_13)))
 (let ((?x194 (- (* (* (* (- 2.0) _a_0_) _a_1_) l_1_2_9) (* (* 1.0 _a_0_) l_1_2_12))))
 (let ((?x155 (- (- (- (- ?x194 ?x195) ?x151) ?x21) (* (* 1.0 _a_0_) l_1_2_8))))
 (let ((?x118 (- (+ (+ (+ (+ (+ ?x155 _a_0_) ?x159) ?x161) ?x164) ?x166) (* (* 2.0 l_1_2_15) l_1_2_16))))
 (= ?x118 0.0))))))))))))
(assert
 (let ((?x1202 (* l_1_2_17 l_1_2_17)))
 (let ((?x1197 (* l_1_2_16 l_1_2_16)))
 (let ((?x645 (* (/ 5089.0 5000000000.0) _a_5_)))
 (let ((?x650 (* (/ 25897921.0 2500000000000000.0) _a_4_)))
 (let ((?x647 (* (/ 5089.0 50000000.0) _a_3_)))
 (let ((?x634 (* (/ 1.0 10000.0) _a_2_)))
 (let ((?x1545 (* _a_1_ l_1_2_3)))
 (let ((?x1543 (* _a_1_ l_1_2_2)))
 (let ((?x1541 (* _a_1_ l_1_2_13)))
 (let ((?x1544 (- (- (- (* (/ 1.0 100.0) _a_0_) (* (* 1.0 _a_1_) l_1_2_12)) ?x1541) ?x1543)))
 (let ((?x637 (+ (+ (- (- ?x1544 ?x1545) (* (* 1.0 _a_1_) l_1_2_8)) _a_1_) ?x634)))
 (let ((?x779 (- (- (+ (+ (+ ?x637 ?x647) ?x650) ?x645) (* 1.0 l_1_2_1)) l_1_2_10)))
 (let ((?x1209 (- (- (- (- (- ?x779 l_1_2_11) l_1_2_14) ?x1197) ?x1202) (* 1.0 l_1_2_4))))
 (let ((?x589 (- (- (- (- ?x1209 l_1_2_5) (* 1.0 l_1_2_6)) (* 1.0 l_1_2_7)) (* (* l_1_2_9 _a_1_) _a_1_))))
 (= ?x589 0.0))))))))))))))))
(assert
 (let ((?x543 (* (/ 124973785829.0 12500000000000.0) _a_5_)))
 (let ((?x423 (* (/ 40707679574001.0 200000000000000000.0) _a_4_)))
 (let ((?x416 (* (/ 249973469579.0 250000000000.0) _a_3_)))
 (let ((?x412 (* _a_3_ l_1_2_3)))
 (let ((?x1105 (* _a_3_ l_1_2_2)))
 (let ((?x1103 (* _a_3_ l_1_2_13)))
 (let ((?x1102 (* (/ 5089.0 25000000.0) _a_2_)))
 (let ((?x1106 (- (- (* (- (/ 5089.0 500000.0)) _a_0_) (* (* (* 2.0 _a_1_) _a_3_) l_1_2_9)) ?x1102)))
 (let ((?x425 (- (- (- (- ?x1106 (* (* 1.0 _a_3_) l_1_2_12)) ?x1103) ?x1105) ?x412)))
 (let ((?x547 (+ (+ (+ (- ?x425 (* (* 1.0 _a_3_) l_1_2_8)) ?x416) ?x423) ?x543)))
 (let ((?x1416 (- (- ?x547 (* (* 2.0 l_1_2_16) l_1_2_18)) (* (* 2.0 l_1_2_17) l_1_2_19))))
 (= ?x1416 0.0)))))))))))))
(assert
 (let ((?x574 (+ (* (* 2.0 _a_0_) _a_3_) (* (* 2.0 _a_1_) _a_5_))))
 (let ((?x1680 (* (/ 12497251686731.0 12500000000000.0) _a_5_)))
 (let ((?x751 (* _a_5_ l_1_2_3)))
 (let ((?x748 (* _a_5_ l_1_2_2)))
 (let ((?x746 (* _a_5_ l_1_2_13)))
 (let ((?x1435 (* (/ 207280909786429.0 10000000000000000.0) _a_4_)))
 (let ((?x743 (+ (- (- (* (- (/ 18721.0 1000000.0)) _a_0_) (* (/ 1036521.0 50000000.0) _a_2_)) (* (/ 158521169.0 250000000000.0) _a_3_)) ?x1435)))
 (let ((?x753 (- (- (- (- ?x743 (* (* 1.0 _a_5_) l_1_2_12)) ?x746) ?x748) ?x751)))
 (let ((?x1499 (- (+ (- ?x753 (* (* 1.0 _a_5_) l_1_2_8)) ?x1680) (* (* 2.0 l_1_2_15) l_1_2_18))))
 (= (- ?x1499 (* l_1_2_9 ?x574)) 0.0)))))))))))
(assert
 (let ((?x812 (* l_1_2_20 l_1_2_20)))
 (let ((?x810 (* l_1_2_19 l_1_2_19)))
 (let ((?x815 (* l_1_2_18 l_1_2_18)))
 (let ((?x814 (* (/ 50884213212401.0 5000000000000000.0) _a_5_)))
 (let ((?x807 (* (/ 12497347111777.0 12500000000000.0) _a_4_)))
 (let ((?x1237 (* _a_4_ l_1_2_3)))
 (let ((?x1230 (* _a_4_ l_1_2_2)))
 (let ((?x1689 (* _a_4_ l_1_2_13)))
 (let ((?x1688 (- (+ (+ (* (/ 253.0 1000000.0) _a_0_) (* (/ 27162921.0 250000000000.0) _a_2_)) (* (/ 1287517.0 250000000000.0) _a_3_)) (* (* 1.0 _a_4_) l_1_2_12))))
 (let ((?x802 (- (- (- (- ?x1688 ?x1689) ?x1230) ?x1237) (* (* 1.0 _a_4_) l_1_2_8))))
 (let ((?x937 (- (- (- (- (- (+ ?x802 ?x807) ?x814) ?x815) ?x810) ?x812) (* l_1_2_9 (+ (* (* 2.0 _a_1_) _a_4_) (* _a_3_ _a_3_))))))
 (= ?x937 0.0)))))))))))))
(assert
 (let ((?x1049 (* l_1_2_15 l_1_2_15)))
 (let ((?x1354 (* (/ 527621.0 50000000.0) _a_5_)))
 (let ((?x693 (* (/ 1112484251041.0 10000000000000000.0) _a_4_)))
 (let ((?x679 (* (/ 18721.0 1000000.0) _a_3_)))
 (let ((?x674 (* _a_2_ l_1_2_3)))
 (let ((?x1636 (* _a_2_ l_1_2_2)))
 (let ((?x675 (- (- (- (* (* (- 1.0) _a_2_) l_1_2_12) (* _a_2_ l_1_2_13)) ?x1636) ?x674)))
 (let ((?x1361 (+ (+ (+ (- ?x675 (* (* 1.0 _a_2_) l_1_2_8)) _a_2_) ?x679) ?x693)))
 (let ((?x1000 (- (- (+ ?x1361 ?x1354) ?x1049) (* l_1_2_9 (+ (* _a_0_ _a_0_) (* (* 2.0 _a_1_) _a_2_))))))
 (= ?x1000 0.0)))))))))))
(assert
 (let ((?x337 (+ (* (* 2.0 _a_0_) _a_5_) (* (* 2.0 _a_2_) _a_3_))))
 (let ((?x135 (* (/ 51108943441.0 50000000000000.0) _a_5_)))
 (let ((?x136 (- (+ (- (* (- (/ 18721.0 500000.0)) _a_2_) (* (/ 350475841.0 1000000000000.0) _a_3_)) (* (/ 93562026018491.0 2500000000000000.0) _a_4_)) ?x135)))
 (= (- ?x136 (* l_1_2_9 ?x337)) 0.0)))))
(assert
 (let ((?x393 (+ (* (* 2.0 _a_0_) _a_4_) (* (* 2.0 _a_3_) _a_5_))))
 (let ((?x1378 (* (/ 37409384775463.0 2000000000000000.0) _a_5_)))
 (let ((?x346 (- (- (+ (* (/ 221771169.0 250000000000.0) _a_2_) (* (/ 4736413.0 500000000000.0) _a_3_)) (* (/ 31698152009291.0 25000000000000000.0) _a_4_)) ?x1378)))
 (= (- ?x346 (* l_1_2_9 ?x393)) 0.0)))))
(assert
 (let ((?x1445 (* (/ 64009.0 1000000000000.0) _a_3_)))
 (let ((?x1455 (- (- (* (- (/ 1287517.0 250000000000.0)) _a_2_) (* (* (* 2.0 _a_3_) _a_4_) l_1_2_9)) ?x1445)))
 (= (+ (+ ?x1455 (* (/ 51495149512751.0 5000000000000000000.0) _a_4_)) (* (/ 63230023432961.0 250000000000000000.0) _a_5_)) 0.0))))
(assert
 (let ((?x208 (- (+ (- (* (/ 350475841.0 1000000000000.0) _a_2_) (* (/ 700086027943143.0 1000000000000000000.0) _a_4_)) (* (/ 14823540664547.0 500000000000000000.0) _a_5_)) (* l_1_2_9 (+ (* (* 2.0 _a_2_) _a_4_) (* _a_5_ _a_5_))))))
 (= ?x208 0.0)))
(assert
 (let ((?x888 (* (/ 104315317271.0 250000000000000000.0) _a_5_)))
 (let ((?x889 (* (/ 47339458409133.0 2500000000000000000.0) _a_4_)))
 (let ((?x893 (+ (- (* (- (/ 4736413.0 500000000000.0)) _a_2_) (* (* (* 2.0 _a_4_) _a_5_) l_1_2_9)) ?x889)))
 (= (- ?x893 ?x888) 0.0)))))
(assert
 (let ((?x1010 (- (+ (- (* (/ 64009.0 1000000000000.0) _a_2_) (* (/ 127977891313853.0 1000000000000000000000.0) _a_4_)) (* (/ 977225403.0 500000000000000000.0) _a_5_)) (* (* l_1_2_9 _a_4_) _a_4_))))
 (= ?x1010 0.0)))
(assert
 (let ((?x521 (* (/ 18721.0 1000000.0) _a_5_)))
 (let ((?x522 (+ (+ (* (* (* (- 2.0) _a_0_) _a_2_) l_1_2_9) (* (/ 19404709641.0 50000000000000.0) _a_4_)) ?x521)))
 (= ?x522 0.0))))
(assert
 (let ((?x263 (* (/ 350475841.0 500000000000.0) _a_5_)))
 (let ((?x264 (- (- (* (* (* (- 2.0) _a_2_) _a_5_) l_1_2_9) (* (/ 38758637278219.0 1250000000000000000.0) _a_4_)) ?x263)))
 (= ?x264 0.0))))
(assert
 (= (- (* (/ 350475841.0 1000000000000.0) _a_4_) (* (* l_1_2_9 _a_2_) _a_2_)) 0.0))
(assert
 (= (* (- (/ 6561258219361.0 500000000000000000.0)) _a_4_) 0.0))
(assert
 (= (+ (* (/ 6393154170117.0 8000000000000000000.0) _a_4_) (* (/ 6561258219361.0 1000000000000000000.0) _a_5_)) 0.0))
(assert
 (= (- (* (- (/ 180197214150431.0 10000000000000000000000.0)) _a_4_) (* (/ 266011163319.0 1000000000000000000.0) _a_5_)) 0.0))
(assert
 (= (+ (* (/ 22343206019563.0 125000000000000000000000.0) _a_4_) (* (/ 3594937467.0 1000000000000000000.0) _a_5_)) 0.0))
(assert
 (= (- (* (- (/ 82412675653.0 125000000000000000000000.0)) _a_4_) (* (/ 16194277.0 1000000000000000000.0) _a_5_)) 0.0))
(assert
 (= (* (/ 122833315124657.0 1000000000000000000000.0) _a_4_) 0.0))
(assert
 (= (* (- (/ 663999331799333.0 100000000000000000000000.0)) _a_4_) 0.0))
(assert
 (= (* (/ 67300824319707.0 500000000000000000000000.0) _a_4_) 0.0))
(assert
 (= (* (- (/ 303173059717.0 250000000000000000000000.0)) _a_4_) 0.0))
(assert
 (= (* (/ 4097152081.0 1000000000000000000000000.0) _a_4_) 0.0))
(assert
 (>= l_1_2_1 0.0))
(assert
 (>= l_1_2_2 0.0))
(assert
 (>= l_1_2_3 0.0))
(assert
 (>= l_1_2_4 0.0))
(assert
 (>= l_1_2_5 0.0))
(assert
 (>= l_1_2_6 0.0))
(assert
 (>= l_1_2_7 0.0))
(assert
 (>= l_1_2_8 0.0))
(assert
 (>= l_1_2_9 0.0))
(assert
 (>= l_1_2_10 0.0))
(assert
 (>= l_1_2_11 0.0))
(assert
 (>= l_1_2_12 0.0))
(assert
 (>= l_1_2_13 0.0))
(assert
 (>= l_1_2_14 0.0))
(assert
 (>= l_1_2_15 0.0))
(assert
 (>= l_1_2_17 0.0))
(assert
 (>= l_1_2_20 0.0))
(check-sat)
(get-model)